(set-info :smt-lib-version 2.6)
(set-logic UF)
(set-info :source |Benchmarks from the paper: "Extending Sledgehammer with SMT Solvers" by Jasmin Blanchette, Sascha Bohme, and Lawrence C. Paulson, CADE 2011.  Translated to SMT2 by Andrew Reynolds and Morgan Deters.|)
(set-info :category "industrial")
(set-info :status sat)
(declare-sort S1 0)
(declare-sort S2 0)
(declare-sort S3 0)
(declare-sort S4 0)
(declare-sort S5 0)
(declare-sort S6 0)
(declare-sort S7 0)
(declare-sort S8 0)
(declare-sort S9 0)
(declare-sort S10 0)
(declare-sort S11 0)
(declare-sort S12 0)
(declare-sort S13 0)
(declare-sort S14 0)
(declare-sort S15 0)
(declare-sort S16 0)
(declare-sort S17 0)
(declare-sort S18 0)
(declare-sort S19 0)
(declare-sort S20 0)
(declare-sort S21 0)
(declare-sort S22 0)
(declare-sort S23 0)
(declare-sort S24 0)
(declare-fun f1 () S1)
(declare-fun f2 () S1)
(declare-fun f3 (S3 S2) S4)
(declare-fun f4 () S3)
(declare-fun f5 (S5 S4) S4)
(declare-fun f6 (S6 S4) S5)
(declare-fun f7 () S6)
(declare-fun f8 () S3)
(declare-fun f9 (S7 S2) S2)
(declare-fun f10 (S8 S2) S7)
(declare-fun f11 () S8)
(declare-fun f12 () S8)
(declare-fun f13 (S9 S10) S2)
(declare-fun f14 () S9)
(declare-fun f15 (S11 S10) S10)
(declare-fun f16 () S11)
(declare-fun f17 () S11)
(declare-fun f18 () S10)
(declare-fun f19 () S2)
(declare-fun f20 (S12 S4) S3)
(declare-fun f21 () S12)
(declare-fun f22 () S3)
(declare-fun f23 () S2)
(declare-fun f24 () S2)
(declare-fun f25 () S3)
(declare-fun f26 () S3)
(declare-fun f27 () S7)
(declare-fun f28 () S3)
(declare-fun f29 () S3)
(declare-fun f30 (S13 S2) S3)
(declare-fun f31 (S14 S3) S13)
(declare-fun f32 (S15 S2) S14)
(declare-fun f33 () S15)
(declare-fun f34 (S16 S17) S4)
(declare-fun f35 (S18 S3) S16)
(declare-fun f36 () S18)
(declare-fun f37 (S2 S2) S17)
(declare-fun f38 () S2)
(declare-fun f39 () S5)
(declare-fun f40 () S6)
(declare-fun f41 () S4)
(declare-fun f42 (S2 S2) S1)
(declare-fun f43 (S2 S2) S1)
(declare-fun f44 (S19 S2) S10)
(declare-fun f45 (S20 S10) S19)
(declare-fun f46 () S20)
(declare-fun f47 () S11)
(declare-fun f48 () S10)
(declare-fun f49 (S21 S10) S11)
(declare-fun f50 () S21)
(declare-fun f51 () S8)
(declare-fun f52 () S21)
(declare-fun f53 () S11)
(declare-fun f54 () S6)
(declare-fun f55 (S22 S10) S4)
(declare-fun f56 () S22)
(declare-fun f57 () S10)
(declare-fun f58 (S23 S3) S3)
(declare-fun f59 (S24 S2) S23)
(declare-fun f60 () S24)
(declare-fun f61 () S4)
(declare-fun f62 (S10 S10) S1)
(declare-fun f63 (S10 S10) S1)
(assert (not (= f1 f2)))
(assert (forall ((?v0 S2)) (let ((?v_0 (f10 f12 (f13 f14 (f15 f16 (f15 f17 f18)))))) (let ((?v_1 (f9 (f10 f11 (f9 ?v_0 ?v0)) f19))) (= (f3 f4 ?v0) (f5 (f6 f7 (f3 f8 ?v_1)) (f3 (f20 f21 (f3 f22 (f9 ?v_0 f23))) (f9 (f10 f12 f24) ?v_1))))))))
(assert (forall ((?v0 S2)) (let ((?v_0 (f10 f12 (f13 f14 (f15 f16 (f15 f17 f18)))))) (let ((?v_1 (f9 ?v_0 ?v0))) (= (f3 f25 ?v0) (f5 (f6 f7 (f3 f8 ?v_1)) (f3 (f20 f21 (f3 f22 (f9 ?v_0 f23))) (f9 (f10 f12 f24) ?v_1))))))))
(assert (forall ((?v0 S2)) (= (f3 f26 ?v0) (f5 (f6 f7 (f3 f8 (f9 f27 (f9 (f10 f12 (f13 f14 (f15 f16 (f15 f17 f18)))) ?v0)))) (f3 (f20 f21 (f3 (f20 f21 (f3 f22 f23)) f24)) ?v0)))))
(assert (forall ((?v0 S2)) (let ((?v_0 (f10 f12 (f13 f14 (f15 f16 (f15 f17 f18)))))) (let ((?v_1 (f9 ?v_0 ?v0))) (= (f3 f28 ?v0) (f5 (f6 f7 (f3 f8 (f9 f27 ?v_1))) (f3 (f20 f21 (f3 f22 (f9 ?v_0 f23))) (f9 (f10 f11 f24) (f9 (f10 f12 f24) ?v_1)))))))))
(assert (forall ((?v0 S2)) (= (f3 f29 ?v0) (f5 (f6 f7 (f3 f8 ?v0)) (f3 (f20 f21 (f3 f22 (f9 (f10 f12 (f13 f14 (f15 f16 (f15 f17 f18)))) f23))) (f9 (f10 f12 f24) ?v0))))))
(assert (forall ((?v0 S2) (?v1 S3) (?v2 S2) (?v3 S2)) (= (f3 (f30 (f31 (f32 f33 ?v0) ?v1) ?v2) ?v3) (f5 (f6 f7 (f3 ?v1 ?v3)) (f3 (f20 f21 (f3 f22 ?v0)) (f9 (f10 f12 ?v2) ?v3))))))
(assert (let ((?v_0 (f37 f38 f23)) (?v_1 (f20 f21 (f5 (f6 f7 f41) (f3 f22 (f9 (f10 f12 (f13 f14 (f15 f16 (f15 f17 f18)))) f23)))))) (not (= (f34 (f35 f36 f28) ?v_0) (f5 f39 (f5 (f6 f7 (f5 (f6 f40 (f3 ?v_1 f24)) (f34 (f35 f36 f26) ?v_0))) (f3 ?v_1 f23)))))))
(assert (= (f42 f38 f23) f1))
(assert (= (f43 f23 f24) f1))
(assert (= (f3 f22 f38) f41))
(assert (forall ((?v0 S2)) (= (f3 (f20 f21 (f3 f22 ?v0)) ?v0) f41)))
(assert (forall ((?v0 S2) (?v1 S2) (?v2 S2)) (let ((?v_0 (f10 f12 (f13 f14 (f15 f16 (f15 f17 f18))))) (?v_1 (f10 f12 ?v1))) (= (f3 (f20 f21 (f3 f22 (f9 ?v_0 ?v0))) (f9 ?v_1 (f9 ?v_0 ?v2))) (f3 (f20 f21 (f3 f22 ?v0)) (f9 ?v_1 ?v2))))))
(assert (forall ((?v0 S2)) (let ((?v_0 (f5 f39 f41))) (= (f3 (f20 f21 ?v_0) (f9 f27 (f9 (f10 f12 (f13 f14 (f15 f16 (f15 f17 f18)))) ?v0))) ?v_0))))
(assert (forall ((?v0 S2)) (let ((?v_0 (f15 f47 f48))) (= (f44 (f45 f46 ?v_0) (f9 f27 (f9 (f10 f12 (f13 f14 (f15 f16 (f15 f17 f18)))) ?v0))) ?v_0))))
(assert (forall ((?v0 S2)) (= (f3 (f20 f21 (f5 f39 f41)) (f9 (f10 f12 (f13 f14 (f15 f16 (f15 f17 f18)))) ?v0)) f41)))
(assert (forall ((?v0 S2)) (= (f44 (f45 f46 (f15 f47 f48)) (f9 (f10 f12 (f13 f14 (f15 f16 (f15 f17 f18)))) ?v0)) f48)))
(assert (forall ((?v0 S10) (?v1 S2)) (let ((?v_1 (f13 f14 (f15 f16 (f15 f17 f18)))) (?v_0 (f45 f46 ?v0))) (= (f44 ?v_0 (f9 f27 (f9 (f10 f12 ?v_1) ?v1))) (f15 (f49 f50 ?v0) (f44 (f45 f46 (f44 ?v_0 ?v1)) ?v_1))))))
(assert (forall ((?v0 S2) (?v1 S2)) (let ((?v_1 (f13 f14 (f15 f16 (f15 f17 f18)))) (?v_0 (f10 f51 ?v0))) (= (f9 ?v_0 (f9 f27 (f9 (f10 f12 ?v_1) ?v1))) (f9 (f10 f12 ?v0) (f9 (f10 f51 (f9 ?v_0 ?v1)) ?v_1))))))
(assert (forall ((?v0 S4) (?v1 S2)) (let ((?v_1 (f13 f14 (f15 f16 (f15 f17 f18)))) (?v_0 (f20 f21 ?v0))) (= (f3 ?v_0 (f9 f27 (f9 (f10 f12 ?v_1) ?v1))) (f5 (f6 f40 ?v0) (f3 (f20 f21 (f3 ?v_0 ?v1)) ?v_1))))))
(assert (forall ((?v0 S10) (?v1 S2)) (let ((?v_0 (f45 f46 ?v0))) (let ((?v_1 (f44 ?v_0 ?v1))) (= (f44 ?v_0 (f9 f27 (f9 (f10 f12 (f13 f14 (f15 f16 (f15 f17 f18)))) ?v1))) (f15 (f49 f50 ?v0) (f15 (f49 f50 ?v_1) ?v_1)))))))
(assert (forall ((?v0 S2) (?v1 S2)) (let ((?v_0 (f10 f51 ?v0))) (let ((?v_1 (f9 ?v_0 ?v1))) (= (f9 ?v_0 (f9 f27 (f9 (f10 f12 (f13 f14 (f15 f16 (f15 f17 f18)))) ?v1))) (f9 (f10 f12 ?v0) (f9 (f10 f12 ?v_1) ?v_1)))))))
(assert (forall ((?v0 S4) (?v1 S2)) (let ((?v_0 (f20 f21 ?v0))) (let ((?v_1 (f3 ?v_0 ?v1))) (= (f3 ?v_0 (f9 f27 (f9 (f10 f12 (f13 f14 (f15 f16 (f15 f17 f18)))) ?v1))) (f5 (f6 f40 ?v0) (f5 (f6 f40 ?v_1) ?v_1)))))))
(assert (forall ((?v0 S10) (?v1 S10)) (let ((?v_1 (f15 f16 (f15 f17 f18)))) (let ((?v_0 (f13 f14 ?v_1))) (= (f44 (f45 f46 (f15 (f49 f52 ?v0) ?v1)) ?v_0) (f15 (f49 f52 (f15 (f49 f52 (f44 (f45 f46 ?v0) ?v_0)) (f44 (f45 f46 ?v1) ?v_0))) (f15 (f49 f50 (f15 (f49 f50 (f15 f53 ?v_1)) ?v0)) ?v1)))))))
(assert (forall ((?v0 S2) (?v1 S2)) (let ((?v_0 (f13 f14 (f15 f16 (f15 f17 f18))))) (= (f9 (f10 f51 (f9 (f10 f11 ?v0) ?v1)) ?v_0) (f9 (f10 f11 (f9 (f10 f11 (f9 (f10 f51 ?v0) ?v_0)) (f9 (f10 f51 ?v1) ?v_0))) (f9 (f10 f12 (f9 (f10 f12 ?v_0) ?v0)) ?v1))))))
(assert (forall ((?v0 S4) (?v1 S4)) (let ((?v_1 (f15 f16 (f15 f17 f18)))) (let ((?v_0 (f13 f14 ?v_1))) (= (f3 (f20 f21 (f5 (f6 f54 ?v0) ?v1)) ?v_0) (f5 (f6 f54 (f5 (f6 f54 (f3 (f20 f21 ?v0) ?v_0)) (f3 (f20 f21 ?v1) ?v_0))) (f5 (f6 f40 (f5 (f6 f40 (f55 f56 ?v_1)) ?v0)) ?v1)))))))
(assert (forall ((?v0 S10) (?v1 S2)) (let ((?v_0 (f9 (f10 f12 (f13 f14 (f15 f16 (f15 f17 f18)))) ?v1))) (= (f44 (f45 f46 (f15 f47 ?v0)) ?v_0) (f44 (f45 f46 ?v0) ?v_0)))))
(assert (forall ((?v0 S4) (?v1 S2)) (let ((?v_0 (f9 (f10 f12 (f13 f14 (f15 f16 (f15 f17 f18)))) ?v1))) (= (f3 (f20 f21 (f5 f39 ?v0)) ?v_0) (f3 (f20 f21 ?v0) ?v_0)))))
(assert (forall ((?v0 S10) (?v1 S2)) (let ((?v_0 (f45 f46 ?v0))) (let ((?v_1 (f44 ?v_0 ?v1))) (= (f44 ?v_0 (f9 (f10 f12 (f13 f14 (f15 f16 (f15 f17 f18)))) ?v1)) (f15 (f49 f50 ?v_1) ?v_1))))))
(assert (forall ((?v0 S2) (?v1 S2)) (let ((?v_0 (f10 f51 ?v0))) (let ((?v_1 (f9 ?v_0 ?v1))) (= (f9 ?v_0 (f9 (f10 f12 (f13 f14 (f15 f16 (f15 f17 f18)))) ?v1)) (f9 (f10 f12 ?v_1) ?v_1))))))
(assert (forall ((?v0 S4) (?v1 S2)) (let ((?v_0 (f20 f21 ?v0))) (let ((?v_1 (f3 ?v_0 ?v1))) (= (f3 ?v_0 (f9 (f10 f12 (f13 f14 (f15 f16 (f15 f17 f18)))) ?v1)) (f5 (f6 f40 ?v_1) ?v_1))))))
(assert (forall ((?v0 S4)) (= (= (f3 (f20 f21 ?v0) (f13 f14 (f15 f16 (f15 f17 f18)))) f41) (or (= ?v0 f41) (= ?v0 (f5 f39 f41))))))
(assert (forall ((?v0 S10)) (= (= (f44 (f45 f46 ?v0) (f13 f14 (f15 f16 (f15 f17 f18)))) f48) (or (= ?v0 f48) (= ?v0 (f15 f47 f48))))))
(assert (forall ((?v0 S10)) (let ((?v_0 (f15 f53 ?v0))) (= (f44 (f45 f46 ?v_0) (f13 f14 (f15 f16 (f15 f17 f18)))) (f15 (f49 f50 ?v_0) ?v_0)))))
(assert (forall ((?v0 S10)) (let ((?v_0 (f13 f14 ?v0))) (= (f9 (f10 f51 ?v_0) (f13 f14 (f15 f16 (f15 f17 f18)))) (f9 (f10 f12 ?v_0) ?v_0)))))
(assert (forall ((?v0 S10)) (let ((?v_0 (f55 f56 ?v0))) (= (f3 (f20 f21 ?v_0) (f13 f14 (f15 f16 (f15 f17 f18)))) (f5 (f6 f40 ?v_0) ?v_0)))))
(assert (forall ((?v0 S10) (?v1 S10)) (let ((?v_0 (f13 f14 (f15 f16 (f15 f17 f18))))) (= (= (f15 (f49 f52 (f44 (f45 f46 ?v0) ?v_0)) (f44 (f45 f46 ?v1) ?v_0)) f57) (and (= ?v0 f57) (= ?v1 f57))))))
(assert (forall ((?v0 S2) (?v1 S3) (?v2 S2)) (= (f3 (f58 (f59 f60 ?v0) ?v1) ?v2) (f34 (f35 f36 (f30 (f31 (f32 f33 ?v0) ?v1) ?v2)) (f37 f38 ?v0)))))
(assert (forall ((?v0 S2)) (= (f9 (f10 f12 ?v0) (f13 f14 (f15 f16 (f15 f17 f18)))) (f9 (f10 f11 ?v0) ?v0))))
(assert (let ((?v_0 (f37 f38 f23))) (= (f34 (f35 f36 f29) (f37 f38 (f9 (f10 f12 (f13 f14 (f15 f16 (f15 f17 f18)))) f23))) (f5 (f6 f54 (f34 (f35 f36 f25) ?v_0)) (f34 (f35 f36 f4) ?v_0)))))
(assert (forall ((?v0 S10)) (= (f44 (f45 f46 ?v0) f19) ?v0)))
(assert (forall ((?v0 S2)) (= (f9 (f10 f51 ?v0) f19) ?v0)))
(assert (forall ((?v0 S4)) (= (f3 (f20 f21 ?v0) f19) ?v0)))
(assert (forall ((?v0 S2)) (= (f9 f27 ?v0) (f9 (f10 f11 ?v0) f19))))
(assert (forall ((?v0 S2)) (= (f9 f27 ?v0) (f9 (f10 f11 f19) ?v0))))
(assert (forall ((?v0 S2)) (not (= (f3 f22 ?v0) f61))))
(assert (forall ((?v0 S10) (?v1 S10)) (= (= (f62 f57 (f15 (f49 f52 (f15 (f49 f50 ?v0) ?v0)) (f15 (f49 f50 ?v1) ?v1))) f1) (or (not (= ?v0 f57)) (not (= ?v1 f57))))))
(assert (forall ((?v0 S10) (?v1 S10)) (not (= (f62 (f15 (f49 f52 (f15 (f49 f50 ?v0) ?v0)) (f15 (f49 f50 ?v1) ?v1)) f57) f1))))
(assert (forall ((?v0 S10) (?v1 S10)) (= (= (f63 (f15 (f49 f52 (f15 (f49 f50 ?v0) ?v0)) (f15 (f49 f50 ?v1) ?v1)) f57) f1) (and (= ?v0 f57) (= ?v1 f57)))))
(assert (forall ((?v0 S10) (?v1 S10)) (= (f63 f57 (f15 (f49 f52 (f15 (f49 f50 ?v0) ?v0)) (f15 (f49 f50 ?v1) ?v1))) f1)))
(assert (= (f13 f14 (f15 f17 f18)) f19))
(assert (= f19 (f13 f14 (f15 f17 f18))))
(assert (forall ((?v0 S2) (?v1 S2)) (let ((?v_0 (f13 f14 (f15 f16 (f15 f17 f18))))) (=> (= (f42 (f9 (f10 f51 ?v0) ?v_0) (f9 (f10 f51 ?v1) ?v_0)) f1) (=> (= (f43 f38 ?v1) f1) (= (f42 ?v0 ?v1) f1))))))
(assert (forall ((?v0 S10) (?v1 S10)) (let ((?v_0 (f13 f14 (f15 f16 (f15 f17 f18))))) (=> (= (f62 (f44 (f45 f46 ?v0) ?v_0) (f44 (f45 f46 ?v1) ?v_0)) f1) (=> (= (f63 f57 ?v1) f1) (= (f62 ?v0 ?v1) f1))))))
(assert (= (f3 f22 f19) f41))
(assert (forall ((?v0 S10) (?v1 S10) (?v2 S10) (?v3 S10)) (let ((?v_0 (f49 f50 ?v0))) (= (f15 (f49 f50 (f15 ?v_0 ?v1)) (f15 (f49 f50 ?v2) ?v3)) (f15 (f49 f50 (f15 ?v_0 ?v2)) (f15 (f49 f50 ?v1) ?v3))))))
(assert (forall ((?v0 S2) (?v1 S2) (?v2 S2) (?v3 S2)) (let ((?v_0 (f10 f12 ?v0))) (= (f9 (f10 f12 (f9 ?v_0 ?v1)) (f9 (f10 f12 ?v2) ?v3)) (f9 (f10 f12 (f9 ?v_0 ?v2)) (f9 (f10 f12 ?v1) ?v3))))))
(assert (forall ((?v0 S4) (?v1 S4) (?v2 S4) (?v3 S4)) (let ((?v_0 (f6 f40 ?v0))) (= (f5 (f6 f40 (f5 ?v_0 ?v1)) (f5 (f6 f40 ?v2) ?v3)) (f5 (f6 f40 (f5 ?v_0 ?v2)) (f5 (f6 f40 ?v1) ?v3))))))
(assert (forall ((?v0 S10) (?v1 S10) (?v2 S10) (?v3 S10)) (let ((?v_1 (f49 f50 (f15 (f49 f50 ?v0) ?v1))) (?v_0 (f49 f50 ?v2))) (= (f15 ?v_1 (f15 ?v_0 ?v3)) (f15 ?v_0 (f15 ?v_1 ?v3))))))
(assert (forall ((?v0 S2) (?v1 S2) (?v2 S2) (?v3 S2)) (let ((?v_1 (f10 f12 (f9 (f10 f12 ?v0) ?v1))) (?v_0 (f10 f12 ?v2))) (= (f9 ?v_1 (f9 ?v_0 ?v3)) (f9 ?v_0 (f9 ?v_1 ?v3))))))
(assert (forall ((?v0 S4) (?v1 S4) (?v2 S4) (?v3 S4)) (let ((?v_1 (f6 f40 (f5 (f6 f40 ?v0) ?v1))) (?v_0 (f6 f40 ?v2))) (= (f5 ?v_1 (f5 ?v_0 ?v3)) (f5 ?v_0 (f5 ?v_1 ?v3))))))
(check-sat)
(exit)
